
  22    4
  10   10   10   10

   0   0   0   0   0   3 2 3 4 
  10  10  10  10  10   3 7 6 5 
   1  10  10  10  10   3 11 6 5 
   9  10  10  10  10   3 13 11 8 
   1  10  10  10  10   3 13 12 8 
   7  10  10  10  10   2 9 8 
   6  10  10  10  10   3 13 11 10 
   5  10  10  10  10   2 16 10 
   7  10  10  10  10   2 12 10 
   3  10  10  10  10   4 21 18 15 14 
   5  10  10  10  10   1 12 
   6  10  10  10  10   4 21 18 17 15 
   2  10  10  10  10   3 18 17 15 
   4  10  10  10  10   2 20 17 
   6  10  10  10  10   2 20 19 
  10  10  10  10  10   2 21 19 
   4  10  10  10  10   1 19 
   1  10  10  10  10   1 19 
   4  10  10  10  10   1 22
   1  10  10  10  10   1 22
   3  10  10  10  10   1 22
   0   0   0   0   0   0 
